/*********************************************
 * OPL 12.6.0.0 Data
 * Author: Wangyang Ye, Hongping Feng
 * Creation Date: 2017-11-26 at 16:11:55
 *********************************************/
// A
 numNurses = 20;
 hours =  24;
 demand = [ 2 2 1 1 1 2 2 3 4 6 6 7 5 8 8 7 6 6 4 3 4 3 3 3 ];
 minHours = 5;
 maxHours = 9;
 maxConsec = 3;
 
 // B
 maxPresence = 14;
  